results/real/sos1/mar_16_220.out
Version identifier: 22.1.1.0 | 2022-11-28 | 9160aff4d
CPXPARAM_Threads                                 1
CPXPARAM_MIP_Strategy_VariableSelect             3
CPXPARAM_TimeLimit                               599.99998513100002
1 of 1 MIP starts provided solutions.
MIP start 'm1' defined initial solution with objective 82.0000.
Tried aggregator 1 time.
MIP Presolve eliminated 235 rows and 660 columns.
MIP Presolve modified 37 coefficients.
Reduced MIP has 1098 rows, 2200 columns, and 40092 nonzeros.
Reduced MIP has 2200 binaries, 0 generals, 0 SOSs, and 0 indicators.
Presolve time = 0.06 sec. (66.60 ticks)
Probing time = 0.01 sec. (9.76 ticks)
Tried aggregator 1 time.
Detecting symmetries...
MIP Presolve modified 8 coefficients.
Reduced MIP has 1098 rows, 2200 columns, and 40252 nonzeros.
Reduced MIP has 2200 binaries, 0 generals, 0 SOSs, and 0 indicators.
Presolve time = 0.05 sec. (59.05 ticks)
Probing time = 0.01 sec. (9.77 ticks)
Clique table members: 654.
MIP emphasis: balance optimality and feasibility.
MIP search method: dynamic search.
Parallel mode: none, using 1 thread.
Root relaxation solution time = 0.02 sec. (14.91 ticks)

        Nodes                                         Cuts/
   Node  Left     Objective  IInf  Best Integer    Best Bound    ItCnt     Gap

*     0+    0                           82.0000    24310.0000              --- 
      0     0      220.0000    20       82.0000      220.0000      340  168.29%
*     0+    0                          220.0000      220.0000             0.00%
      0     0        cutoff            220.0000      220.0000      340    0.00%
Elapsed time = 0.22 sec. (205.39 ticks, tree = 0.01 MB, solutions = 2)

Root node processing (before b&c):
  Real time             =    0.22 sec. (205.50 ticks)
Sequential b&c:
  Real time             =    0.00 sec. (0.00 ticks)
                          ------------
Total (root+branch&cut) =    0.22 sec. (205.50 ticks)
Primal:	220
Dual:	220
Status:	Optimal
Time:	0.22
Sequence:
	1
	5
	0
	4
	5
	9
	3
	9
	5
	5
	9
	0
	1
	5
	4
	9
	4
	7
	9
	9
	9
	1
	8
	7
	9
	9
	9
	9
	5
	5
	9
	5
	5
	9
	5
	9
	5
	5
	2
	9
	9
	9
	7
	9
	9
	9
	1
	9
	9
	9
	9
	9
	9
	1
	9
	7
	4
	1
	0
	4
	1
	4
	1
	4
	0
	4
	1
	7
	9
	4
	1
	4
	8
	3
	1
	1
	4
	1
	4
	4
	1
	0
	1
	4
	0
	7
	9
	4
	4
	9
	4
	8
	9
	9
	9
	9
	7
	1
	1
	4
	1
	1
	1
	4
	9
	4
	4
	9
	4
	4
	0
	9
	9
	9
	7
	9
	9
	0
	9
	4
	7
	9
	9
	4
	4
	9
	7
	4
	9
	4
	4
	9
	3
	4
	1
	5
	9
	9
	7
	9
	0
	1
	9
	1
	8
	4
	1
	7
	2
	9
	5
	0
	9
	7
	0
	9
	9
	9
	9
	9
	9
	9
	1
	1
	3
	9
	1
	4
	8
	9
	9
	9
	9
	4
	5
	9
	5
	0
	9
	5
	5
	9
	5
	9
	7
	4
	9
	4
	9
	4
	4
	9
	4
	4
	9
	4
	4
	9
	4
	3
	1
	5
	9
	5
	5
	9
	5
	5
	2
	9
	7
	9
	1
	1
	1
	4
	9
	4
	7
	1
